% ==== ledger EDB: target 's32fxj' -> toy.s32fxj.ledger
% ==== emitted: ['amends', 'answers', 'enacts', 'entry', 'supersedes']
% ==== DEFERRED regards: kernel-shape lineage (regards + kernel.principal present) carries this family, but it is NOT emitted this increment (no T_now consumer yet) -- emission DEFERRED; require() refuses, never a silent empty
% ==== DEFERRED review_verdict: kernel-shape lineage (regards + kernel.principal present) carries this family, but it is NOT emitted this increment (no T_now consumer yet) -- emission DEFERRED; require() refuses, never a silent empty
% ==== DEFERRED review_independence: kernel-shape lineage (regards + kernel.principal present) carries this family, but it is NOT emitted this increment (no T_now consumer yet) -- emission DEFERRED; require() refuses, never a silent empty
% ==== DEFERRED obliged: kernel-shape lineage (regards + kernel.principal present) carries this family, but it is NOT emitted this increment (no T_now consumer yet) -- emission DEFERRED; require() refuses, never a silent empty
% ==== DEFERRED acts_for: kernel-shape lineage (regards + kernel.principal present) carries this family, but it is NOT emitted this increment (no T_now consumer yet) -- emission DEFERRED; require() refuses, never a silent empty
% ==== DEFERRED agent_class: kernel-shape lineage (regards + kernel.principal present) carries this family, but it is NOT emitted this increment (no T_now consumer yet) -- emission DEFERRED; require() refuses, never a silent empty
entry(1,1785154434,principal_registered,none,open,none).
entry(2,1785154434,principal_standing_declared,none,open,none).
entry(3,1785154434,principal_standing_declared,none,open,none).
entry(4,1785154434,principal_registered,none,open,none).
entry(5,1785154434,principal_registered,none,open,none).
entry(6,1785154434,principal_registered,none,open,none).
entry(7,1785154434,principal_role_bound,none,open,none).
entry(8,1785154434,entitlement_class_configured,none,open,none).
entry(9,1785154434,entitlement_class_configured,none,open,none).
entry(10,1785154434,entitlement_class_configured,none,open,none).
entry(11,1785154435,entitlement_class_configured,none,open,none).
entry(12,1785154435,entitlement_class_configured,none,open,none).
entry(13,1785154437,work_opened,none,open,none).
entry(14,1785154437,decision,none,open,none).

% ==== ledger EDB: target 's32fxj' -> toy.s32fxj.ledger
% ==== emitted: ['work_base', 'work_discharge', 'work_parent', 'work_review_disposition', 'work_violation_disposition']
work_opened("j-item",13).
w_open("j-item",13).
